letting maxWeight=76
letting values=[22, 16, 2, 11, 3, 1, 4, 35, 34, 2, 25, 25, 27, 3, 15, 15, 14, 35, 24, 24, 18, 15, 16, 1, 12, 24, 13, 20, 4, 1, 1, 36, 32, 23, 32, 21, 22, 20, 2, 1, 6, 18, 34, 30, 17, 27, 14, 27, 23, 25, 4, 7, 14, 9, 30, 22, 27, 13, 31, 9]
letting weights=[16, 9, 5, 9, 12, 14, 1, 19, 10, 6, 7, 7, 11, 3, 22, 21, 15, 18, 22, 4, 3, 16, 19, 19, 6, 2, 10, 18, 13, 8, 10, 11, 1, 16, 10, 20, 16, 3, 21, 22, 10, 8, 18, 19, 18, 14, 10, 8, 10, 6, 19, 7, 5, 3, 19, 6, 2, 1, 19, 12]
